; Query 0 -- Type: InitialValues, Instructions: 13810
; This file conforms to SMTLIBv2 and was generated by KLEE
(set-logic QF_AUFBV )
; Array declarations
; Constraints
; Constraints and QueryExpr
(assert
        true
)
(check-sat)
(exit)
;   OK -- Elapsed: 3.574805e-03s
;   Solvable: true

; Query 1 -- Type: InitialValues, Instructions: 13810
; This file conforms to SMTLIBv2 and was generated by KLEE
(set-option :produce-models true)
(set-logic QF_AUFBV )
; Array declarations
(declare-fun user_data () (Array (_ BitVec 32) (_ BitVec 8) ) )
; Constraints
; Constraints and QueryExpr
(assert
        (bvslt 
               ((_ sign_extend 24) 
                                   (select 
                                           user_data
                                           (_ bv0 32)
                                   )
               )
               (_ bv0 32)
        )
)
(check-sat)
(get-value ( (select user_data (_ bv0 32) ) ) )
(exit)
;   OK -- Elapsed: 2.987931e-03s
;   Solvable: true
;     user_data = [128]

; Query 2 -- Type: InitialValues, Instructions: 13852
; This file conforms to SMTLIBv2 and was generated by KLEE
(set-option :produce-models true)
(set-logic QF_AUFBV )
; Array declarations
(declare-fun user_data () (Array (_ BitVec 32) (_ BitVec 8) ) )
; Constraints
; Constraints and QueryExpr
(assert
        (let
            (
             (?B1
                 ((_ sign_extend 24) 
                                     (select 
                                             user_data
                                             (_ bv0 32)
                                     )
                 )
             )
            )
            (let
                (
                 (?B2
                     ((_ sign_extend 24) 
                                         ((_ extract 7  0) 
                                                           (bvmul 
                                                                  (_ bv2 32)
                                                                  ?B1
                                                           )
                                         )
                     )
                 )
                )
                (and 
                     (= 
                        false
                        (and 
                             (bvsle 
                                    (_ bv0 32)
                                    ?B2
                             )
                             (bvslt 
                                    ?B2
                                    (_ bv10 32)
                             )
                        )
                     )
                     (bvslt 
                            ?B1
                            (_ bv0 32)
                     )
                )
            )
        )
)
(check-sat)
(get-value ( (select user_data (_ bv0 32) ) ) )
(exit)
;   OK -- Elapsed: 5.958186e-03s
;   Solvable: true
;     user_data = [133]

; Query 3 -- Type: InitialValues, Instructions: 13867
; This file conforms to SMTLIBv2 and was generated by KLEE
(set-option :produce-models true)
(set-logic QF_AUFBV )
; Array declarations
(declare-fun user_data () (Array (_ BitVec 32) (_ BitVec 8) ) )
; Constraints
; Constraints and QueryExpr
(assert
        (let
            (
             (?B1
                 ((_ sign_extend 24) 
                                     (select 
                                             user_data
                                             (_ bv0 32)
                                     )
                 )
             )
            )
            (let
                (
                 (?B2
                     ((_ sign_extend 24) 
                                         ((_ extract 7  0) 
                                                           (bvmul 
                                                                  (_ bv2 32)
                                                                  ?B1
                                                           )
                                         )
                     )
                 )
                )
                (and 
                     (and 
                          (and 
                               (= 
                                  false
                                  (bvult 
                                         ((_ sign_extend 32) 
                                                             ?B2
                                         )
                                         (_ bv10 64)
                                  )
                               )
                               (bvslt 
                                      ?B1
                                      (_ bv0 32)
                               )
                          )
                          (bvsle 
                                 (_ bv0 32)
                                 ?B2
                          )
                     )
                     (bvslt 
                            ?B2
                            (_ bv10 32)
                     )
                )
            )
        )
)
(check-sat)
(get-value ( (select user_data (_ bv0 32) ) ) )
(exit)
;   OK -- Elapsed: 3.075723e-03s
;   Solvable: false

